Traveling Salesman Problem/TSP_generados/Aleatorio1620390946_10.tsp
NAME: Aleatorio1620390946_10.tsp
COMMENT: Randomly generated scenario
TYPE: TSP
DIMENSION: 10
EDGE_WEIGHT_TYPE: ATT
NODE_COORD_SECTION
1 47.27 30.73
2 39.25 32.01
3 25.74 6.85
4 19.28 24.21
5 43.16 28.99
6 25.4 33.93
7 29.38 12.65
8 13.48 31.89
9 13.37 3.23
10 44.96 14.31
