Traveling Salesman Problem/TSP_generados/Aleatorio1620390946_10.opt.tour
NAME: Aleatorio1620390946_10.opt.tour
COMMENT: Optimal solution for Aleatorio1620390946_10 (118.88625621150828)
TYPE: TOUR
DIMENSION: 10
TOUR_SECTION
1 5 2 6 8 4 9 3 7 10
-1
EOF
